1186
1   1   0    85   0 18 89 6 92 44 86 0
1   2   0    84   0 95 87 57 41 13 60 0
1   3   0    98   0 48 45 17 84 5 83 0
1   4   0    91   0 85 100 91 16 61 0
2   1   0    99   0 28 94 42 14 38 43 15 0
2   2   0    77   0 12 53 58 40 26 0
2   3   0    94   0 54 55 25 67 39 24 29 0
2   4   0    96   0 34 35 65 66 71 77 0
3   1   0    81   0 75 23 56 4 73 0
3   2   0    100  0 97 37 98 93 59 99 96 0
3   3   0    94   0 80 68 3 81 76 0
3   4   0    69   0 2 21 72 74 22 0
4   1   0    92   0 1 50 9 20 32 30 0
4   2   0    99   0 63 64 11 19 47 36 46 8 52 0
4   3   0    99   0 33 79 78 51 10 88 31 0
4   4   0    100  0 70 90 62 49 82 7 27 69 0